ObjectiveValue = 3509.5;
flow=[(1,6,2)(5,6,9)(5,7,0)(5,8,0)(5,10,13)(5,11,8)(5,12,4)(6,1,1)(6,4,2)(6,10,4)(6,11,32)(8,11,3)(10,11,3)(11,6,33)(11,9,2)(11,10,1)(11,12,3)(12,5,4)(12,6,11)(12,10,2)(12,11,8)];
